
 102   30
  10   10   10   10   10   10   10   10   10   10   10   10   10   10   10   10   10   10   10   10   10   10   10   10   10   10   10   10   10   10

   0   0   0   0   0   0   0   0   0   0   0   0   0   0   0   0   0   0   0   0   0   0   0   0   0   0   0   0   0   0   0  28 2 3 4 5 6 7 8 9 10 11 12 13 14 15 17 18 20 21 23 25 26 30 32 33 34 35 37 41 
   8   2   0   0   0   2   0   0   0   1   0   0   0   0   1   0   0   0   0   0   0   0   2   0   4   0   0   3   0   0   0  23 98 97 80 79 78 67 64 61 59 58 57 56 55 54 53 52 51 50 49 48 45 31 29 
  10   0   0   0   0   0   0   0   0   3   0   0   0   1   0   0   0   0   0   0   0   0   4   3   0   0   0   0   0   0   1  20 101 100 80 78 76 68 67 64 62 61 58 55 54 53 51 49 48 43 36 24 
   5   0   0   0   0   0   0   1   3   0   2   0   0   0   0   0   1   0   0   0   0   0   0   5   4   0   0   0   0   0   3  13 69 64 62 61 59 56 55 53 52 49 38 24 22 
   2   0   0   0   1   0   0   0   4   0   4   1   0   5   0   0   0   0   4   0   0   0   0   0   0   0   0   0   1   0   5  13 80 78 70 68 65 64 59 56 49 47 36 31 19 
   1   0   0   0   0   0   0   0   0   0   0   0   0   0   7   0   0   0   0   0   0   0   0   0   0   0   0   0   0   0   0  22 97 94 80 79 78 77 76 75 70 69 63 62 61 60 58 56 55 54 52 49 47 27 
   6   0   0   0   0   0   1   0   0   0   0   0   0   0   0   0   0   0   0   0   0   1   0   0   0   0   0   0   7   0   0  12 80 79 62 59 58 56 51 48 47 44 39 16 
   5   0   0   3   0   0   0   0   0   0   0   0   0   0   0   1   0   0   3   0   0   0   6   0   0   0   4   4   9   0   0  16 80 78 67 65 64 62 61 59 52 51 50 49 48 40 39 29 
   2   0   0   0   0   0   0   0   0   0   0   0   0   0   0   0   0   0   0   0   0   0   0   0   0   0   0   0   5   0   0  19 101 99 98 97 78 77 73 68 66 65 63 57 52 51 50 49 46 42 40 
   6   0   0   0   0   5   0   0   0   0   0   0   0   0   0   0   0   0   0   0   0   0   7   0   0   0   0   0   0   0   0  23 100 98 97 96 79 78 77 75 74 73 69 68 67 66 65 62 60 55 50 49 48 47 46 
   6   0   0   0   0   0   0   2   0   0   0   5   0   0   0   0   0   0   0   1   0   0   0   8   0   0   0   0   7   0   0  22 101 99 98 97 80 78 77 76 75 74 73 70 68 63 62 60 57 51 49 48 46 45 
   2   0   0   0   0   0   0   0   0   8   0   0   0   0   0   0   0   0   0   0   0   0   0   0   0   0   5   0   0   0   0  18 101 97 96 94 80 79 77 66 62 58 56 55 54 52 51 49 48 43 
   8   0   0   0   5   5   0   0   0   0   0   0   0   0   0   0   0   0   0   0   1   0   0   4   0   0   0   0   0   0   0  12 97 96 79 66 57 56 55 54 53 51 48 31 
   9   0   0   0   0   0   0   0   0   0   0   0   0   5   0   0   0   1   0   9   0   0   0   0   0   0   0   0   0   0   0  19 98 80 79 76 75 73 70 67 64 63 62 61 60 56 51 49 48 47 46 
   5   7   0   6   0   0   0   7   0   0   0   0   0   0   0   0   0   9   0   0   0   0   0   0   0   0   0   0   0   0   0  18 101 97 93 80 79 76 74 69 67 65 64 63 61 58 57 48 46 43 
  10   0   0   0   0   0   0   0   0   0   0   0   0   0   0   0   0   0   0   0   0   0   0   0   0   1   0   0   0   0   0  11 101 100 98 77 75 72 66 65 64 55 28 
   9   0   0   0   0   0   0   0   0   0   0   0   0   0   0   5   0   0   0   0   0   4   0   4   0   0   0   0   0   0   0  19 100 99 97 96 92 89 78 77 75 73 68 65 64 62 60 59 53 48 47 
   7   0   0   0   0   0   5   0   0   0   0   0   3   0   0   0   0   0   0   0   0   0   0   0   0   0   0   0   0   0   0  10 100 78 76 74 66 60 54 51 48 36 
   9   0   0   0   9   0   0   0   8   0   0   0   0   0   0   0   0   0   0   2   0   0   0   0   6   0   0   0   0   0   0  17 101 99 98 96 93 76 75 74 73 67 66 62 60 57 51 48 46 
   6   0   0  10   0   0   0   0   0   0   0   0   0   0   0   0   0   0   0   0  10   0   0   0   0   0   0   6   0   1   0  16 100 98 97 96 95 94 91 76 70 65 60 55 53 51 50 49 
   5   0   0   0   0   8   0   0   0   0   0   0   0   0   0   9   5   0   0   0   0   0   0   0   6   0   0   8   0   0   0  14 101 97 96 93 80 79 76 69 67 65 60 51 48 43 
   6   0   0   0   0   0  10   8   0   0   0   0   0   0   0   0   0   8   0   0   0   0   0   0   8   0   0   4   0   0   0  15 98 97 93 78 77 75 74 73 71 68 60 58 51 50 46 
  10   0   0   0   0   0   0   0   0   0  10   9   0   0   0   0   0   0   0   0   0   0   0   0   0   6   0   5   0   0   0   9 100 99 68 67 66 52 49 43 42 
   9   0   0   0   0   0   0   0   0   0   4   0   0   0   0   3   0   0   0   4   0   0   0   0   0   0   6   0   0   0   0  14 99 95 92 77 75 73 72 71 70 66 63 60 47 46 
   5   0   0   0   0  10   6   0   0   0   0   0   0   0   0   5   9   0   0   0   0   8   0   0   0   0   0   0   0   0   0  14 99 96 94 92 91 89 78 76 75 73 69 54 52 47 
   5   0   0   0   0   0   0   0   5   0   0   7   0   0   0   0   8   0   0   8   0   0   0   0   0   0   5   0   0   0   0  14 98 96 95 91 79 76 75 73 71 62 61 53 51 50 
   7   0   0   0   0   0   0   7   0   0   6   0   0   0   0   7   6   0   0   0   0  10   0   0   0   0   0   3   0   0   7  12 101 99 96 93 73 68 67 66 65 51 50 48 
   7   0   0   0   0   0   0   0   0   0   0   0   0   0   0   0   0   0   0   0   0   0   0   0   0   0   0   0   0   0   0  12 97 95 78 76 74 73 71 67 60 50 49 46 
   6   8   0   0   0   0   0   0   0   0   0   0   0   0   0   0   0   0   6   0   0   5   0   0   0   0   0   0   0   0   0  16 101 100 99 96 92 91 86 77 75 73 71 70 69 68 66 60 
   1   0   0   0   0   0   0   6   7   0   0   0   0   0   0   0   0   0   0   0   6   7   0   0   0   0   0   0   0   0   0  12 101 99 97 96 95 93 92 74 73 69 65 46 
   9   4   0   0   0   0   9   0   0   0   0   0   0   0   3   0   0   0   0   0   0   0   0   0   0   6   0   0   0   0   0  12 99 93 92 76 75 73 72 71 69 62 60 46 
   1   0   0   0   0   0   6   0   0   0   0   0   0   5   0   0   0   0   0   9   0   0   0   0   0   0   0   0   0   0   0  18 101 99 98 97 96 95 94 93 92 91 90 86 85 82 81 80 67 65 
   2   0   3   0   0   0   0   0   0   0   7   0   5   0   0   0   0   0   0   0   0   0   0   0   0   0   0   0   0   0   0  12 100 99 96 95 92 91 89 88 76 72 54 52 
   8   0   0   0   0   0   0   0   0   0   0   7   0   0   0   0   0   0   0   0   0   0   0   0   0   0   0   0   0   0   0  12 100 97 96 93 92 85 78 77 71 66 62 52 
   6   0   0   0   0   0   0   0   0   0   0   0   0   0   0   0   0   0   0   0   0   0   0   0   0   0   0   0   6   6   0   9 99 94 93 92 88 65 62 51 48 
   3   0   0   8   0   0   0   0   0   0   0   0   0   0   0   0   0   6   0   0   0   0   0   0   0   0   0   8   0   8   0   8 97 96 93 79 77 73 50 46 
   8   0   0   4   0   5   0   9   0   0   0   0   0   0   0   0   0   0   0   0   7   0   0   9   0   0   0   0   0   0   0  14 101 98 96 95 94 93 91 89 85 82 81 79 67 65 
   4   0   5   0   0   0   0   0   0   0   0   0   0   0   8   0   0   0   0   0   0   0   0   0   0   9   0   0   0   0   0  12 101 97 94 93 91 89 86 85 75 67 65 60 
   4   0   0   0   0  10   0   6   0   9   0   0   0   0   0   0   0   0   0   0   0   0   0   7   0   0   6   0   0   0   0  14 98 97 94 93 92 91 89 88 86 84 83 81 77 63 
   3   5   0   3   0   0   0   0   0   0   0   0   0   0   0   0   0   0   0   0   0   0   0   5   0  10   4   9   0  10   8  12 100 96 95 94 92 91 90 88 86 75 74 70 
   6   8   0   0   0   0   0   0   0   0   0   0   0   0   0   0   0   0   0   0   6   0   0   5   0   0   0   0   0   0   0   7 99 84 82 72 71 68 49 
   9   0   0   0   0   0   0   0   0   0   0   0   0   0   0   0   0   0   0   0   0   0   0   0   0   0   0   6   4   6   0  12 95 94 93 92 90 89 88 87 86 84 82 72 
   2   0   0   4   5   0   0   0   0   0   0   0   0   0   0   0   0   0   0   0   0   0   0   0   0   0   0   0   0   8   0  10 98 91 89 86 85 84 82 75 73 71 
   6   0  10   0   0   0   0   0   5   7   0   0   0   0   0   0   6   0   0   0   0   3   0   0   0   0   0   0   0   0   0   9 101 98 94 91 86 85 84 74 66 
   5   0   0   0   0   0   6   0   0   0   0   0   6   0   0   0   0   6   0   0   7   0   0   0   0   0   0   7   8   4   0   9 94 90 89 88 87 86 85 82 71 
   6   0   0   0   6   0   0   0   0   6   0   0   0   0   0   0   0   0   0   0   0   7   0   0   0   0   0   0   0   4   0   8 94 91 89 88 86 85 84 81 
  10   0   4   0   0   0   0   8   0   0   0   0   0   0   0   0   5   0   0   0   0   0   0   0   0   0   4   0   3   0   9   7 93 88 86 85 84 82 81 
   9   9   0   0   0   0   0   0   0   0   0   0   0   0   0   0   0   0   0   0   0   0   0   0   0   5   7   5   0   0   0   5 95 91 81 72 71 
  10   0   0   0   0   0   0   0   0   0   0   0   0   8   0   0   0   0   5   0   0  10   0   0   0   0   0   0   0   0   0   6 93 92 89 87 86 85 
   9   0   8   0  10   0   0   0   0   0   0   0   0   0   0   0   0   0   0   0   0   0   0   7   0   0   9   0   0   0   0   6 92 90 86 83 82 81 
   3   0   0   6   5   0   0   0   0   0   0   0   8   0   7   0   0   0   0   0   0   0   6   5   0   0   0   0   6   0   7   5 89 87 83 81 72 
   5   0   0   0   0   7   0   0   0   0   0   0   0   0   0   6   0   0   8   0   0   0   0   0   0   0   0   0   0   0   0   5 90 86 84 81 74 
   4   0   0   0   0   0   0   0   3   0   0   0   0   8   0   0   0   0   0   0   8   5   8   0   0   0   0   0   0   0   0   4 90 88 74 72 
   9   0   0   0   0   0   0   0   0   0   0   0   0   0   9   0   0   0   4   7   0   0   0   0   0   0   0   0   0   0  10   3 87 86 65 
   5   4   0   0   0   0   0   0   9   0   0   0   6   0   0   0   0   8   0   0   0   0   0  10  10   0  10   0   0   0   0   5 90 89 88 83 82 
   3   0   0   0   0   0   0   6   0   0   0   5   0   0   0   0   0   0   9   6   0   0   0   0   7   0   0   0   0   5   0   5 100 86 84 82 81 
   9   0   0   0   0   0   0   0   0   0   0   0   7   0   0   8   0   0   0   0   0   0   0   0   5   0   0   0   0   0   0   5 92 86 85 83 81 
   1   0   0   0   0   0   7   0   0   0   0   0   0   0   0   0   0   5   0   3   0   0  10   0   0   0   0   0   0   0   0   4 95 90 83 72 
   1   0   0   0   0   0   0   0  10   0   0   0   0   0   0   0   0   0   0   0   6   0   0   0   0   0   0   0   0   0   0   4 88 84 83 76 
   7   0   0   0   0   2   0   0   0   0   0   0  10   0   0   0   0   0   7   0   0   0   0   0   0   7   9   0   0   4   0   4 88 87 84 82 
   2   0   0   0   0   0   0   0   0   0   0   0   0   0   0   0   0   0   0   7   0   0   0   0   0   0   0   0   0   0   0   4 88 84 82 81 
   3   5   0   0   0   0   0   0   0   0   0   0   0   0   0   0   0   0   0   0   0   0   0   0   7   0   0   0   0   7   0   3 90 87 82 
   2   0   0   0   0   0   0  10   0   0   0   0   0   0   0   0   0   0   0   0   0   0   0   0   0   5   0   0   0   0   0   3 96 90 82 
   1   0   0   0   0   0   0   0   0   0   0   0   0   0   0   0   0   0   5   0   7   0   0   0   0   5   0   0   0   0   0   3 94 83 82 
   1   0   3   0   0   0   0   0   0   0   0   0   6   0   7   0   0   0   7   0   4   0   0   0   0   0   0   0   0   0   0   2 84 71 
   4   2   0   0   0   0   0   0   0   0   0   0   0   0   0   0   0   0   0   0   0   7   0   0   0   0   0   0   0   0   0   2 89 83 
   7   0   4   0   0   0   0   0   0   8   7   0   0   0   0   0   0   0   0   0   4   0   0   0   0   9   5   0   0   0   0   2 88 87 
   3   0   0   0   0   6   0   0   0   0   0   0   0   0   0   0   0   0   0   0   0   0   0   0   0   0   4   0   0   0   0   2 87 81 
   8   6   0   0   0   0   0   3   0   0   0   0   0   0   0   0   0   0  10   0   0   0   0   0   5   0   0   0   0   9   0   2 90 87 
   5   0   0   0   0   0   0   0   0   0   0   0   4   0   2   0   5   0   0   0   0   0   0   0   0   0   0   0   0   0   0   2 85 84 
   6   8   0   0   0   8   0   0   0   5   0   6   0   0   0   0   0   0   0   0   0   0   0   0   0   0   8   0   0   0   0   1 83 
   6   0   5   0   0   0   0   0   0   0   0   7   4   0   0   0   0   0   0   0   0   0   0   0   0   0   0   0   0   0   0   1 85 
   3   6   0   0   0   0   0   0   0   0   0   0   0   0   0   0   0   0   0   0   0   8   0   0   0   0   0   0   0   0   0   1 81 
   8   0   0   0   0   0   0   0   0   0   0   0   0   0   0   0   0   0   0   0   0   0   0   0   0   0   0   0   0   0   0   1 82 
   5   0   0   0   0   0   0   0   0   0   0   0   0   8   0   0   0   0   0   0   0   0   0   0   4   0   0   0   0   0   0   1 81 
   1   0   6   0   0   0   0   0   0   0   0   0   4   0   7   0   0   0   0   0   0   0   0   0   0   0   0   0   0   0   0   1 81 
   4   0   0   0   0   0   0   0   0   0   0   0   4   0   0   8   0   0   0   0   0   0   3   0   0   4   0   0   0   5   0   1 87 
   8   0   0   0   0   5   0   0   0   0   0   0   0   0   0   0   0   5   0   0   0   0   0   0   0   0   0   0   0   0   0   1 81 
   5   3   0   0   0   7   0   0   0   7   0   0   0   0   0   0   0   0   7   0   0   0   0   0   0   5   0   0   0   0   0   1 86 
   2   0   0   0   0   0   0   0   0   0   0   0   0   0   7   0   0   0   0   0   0   0   0   0   0   9   0   0   0   0   0   1 87 
   1  10   0   7   0   6   0   0   0   0   0   0   0   0   0   0   0   3   0   0   0   0   0   0   0   0   0   0   0   0   0   1 102
   7   0  10   0   0   0   0   0   0   0   0   0   8   0   0   0   0   0   0   9   0   0   8   0   0   0   0   0   8   0   0   1 102
   1   9   0   0   0   0   7   0   8   0   0   0   0   0   0   0   0   0   0   0   0   0   0   7   0   0   0   0   0   7   0   1 102
   8   4   0   0   0   0   0   0   5   0   0   0   0   0   0   0   0   0   0   0   0   0   0   0   0   0   0   6   0   0   0   1 102
   1   0   0   0   0   0   0   0   0   0   0   0   0   0   0   0   0   0   0   0   0   0   0   0   0   4   0   0   0   0   0   1 102
   8   0   0   0   0   0   5   0   0   0   0   0   0   0   0   0   0   0   0   0   0   4   0   0   0   0   7   0   0   0   0   1 102
   2   0   0   0   0   0   0   6   0   0   0   0   0   0   0   0   0   0   0   0   0   0   0   0   7   0   0   0   0   0   5   1 102
   1   0   0   5   0   0   0   0   0   0   0   0   0   0   0   0   0   0   0   0   0   0   0   0   0   0   0   0   0   0   0   1 102
   1   0   0   0   0   0   0   0   4   0   0   0   0   0   0   0   7   0   0   0   6   0   0   0   0   0   0  10   7   0   0   1 102
   7   0   0   7   0   0   7   0   0   0   8   0   0   0   0   0   5   0   0   0   0   0   0   0   0   0   0   0   0   0   0   1 102
   4   0   8   0   0   0   0   0   0   0   0   0   0   0   0   0   0   0   0   0   0   0   6   5   0   0   0   0   0   0   0   1 102
   4   0   0   0   0   0   0   0   0   0   0   0   0   0   0   0   6   0   0   0   5   0   0   0   0   0   0   0   0   0   0   1 102
   6   0   0   9   0   5   0   0   0   0   0   7   0   0   0   0   0   6   0   0   0   0   0   0   0   6   0   0   0   0   0   1 102
   3   0   0   0   0   0   0   0   4   0   0   0   0   0   4   0   0   5   0   0   4   0   0   0   0   0   0   0   0   0   0   1 102
   4   0   0   0   7   0   5   0   0   0   0   0   0   0   0   0   0   0   0   0   0   0   0   0   0   4   0   0   0   0   0   1 102
   7   8   0   0   0   0   7   0   0   0   0   0   6   7   0   6   0   0   0   0   0   0   0   0   5   7   4   0   0   0   0   1 102
   1   0   0   0   0   0   0   0   0   0   0   0   0   6  10   0  10   0   6   0   0   0   0   0   0   0   0   0   9   0   5   1 102
   4   0   0   0   0   6   0   0   0   0   0   0   0   0   0   0   3   9   0   0   9   0   0   0   0   0   0   0   0   0   0   1 102
   4   0   0   0   0   0   0   7   9   0   0   0   0   0   0   0   0   6   0   7   0   0   0   0   0   0   5   0   0   0   0   1 102
   4   0   0   0   0   5   3   0   0   0   0   0   0   0   0   8   8   0   3   0   0   0   0   0   0   0   0   0   0   0   0   1 102
   8   0   0   0   0   0   0   4   0   0   0   0   9   7   0   0   0   7   0   0   0   5   0   0   0   0   0   0   4   0   6   1 102
   0   0   0   0   0   0   0   0   0   0   0   0   0   0   0   0   0   0   0   0   0   0   0   0   0   0   0   0   0   0   0   0 
